language ESSENCE' 1.0
$ Problem from Gecode/examples/minesweeper.cc  problem 6
letting r be 8
letting c be 8
letting game be [
       [-1,3,2,-1,-1,1,-1,-1],
       [-1,-1,-1,-1,1,-1,-1,3],
       [3,-1,-1,2,-1,-1,-1,4],
       [-1,5,-1,-1,-1,5,-1,-1],
       [-1,-1,6,-1,-1,-1,5,-1],
       [3,-1,-1,-1,5,-1,-1,4],
       [2,-1,-1,5,-1,-1,-1,-1],
       [-1,-1,2,-1,-1,3,4,-1]
   ]

